(declare-fun var0 () String)
(assert (RegexIn var0 (RegexConcat (RegexUnion (RegexPlus (Str2Reg "!")) (RegexStar (Str2Reg "\"\"\""))) (RegexConcat (RegexStar (RegexUnion (Str2Reg "YYY") (Str2Reg "Z"))) (RegexConcat (RegexPlus (RegexPlus (Str2Reg "XX"))) (RegexConcat (RegexUnion (RegexPlus (Str2Reg "VV")) (RegexPlus (Str2Reg "WWW"))) (RegexConcat (RegexPlus (RegexUnion (Str2Reg "T") (Str2Reg "U"))) (RegexConcat (RegexPlus (RegexPlus (Str2Reg "SS"))) (RegexConcat (RegexUnion (RegexUnion (Str2Reg "PP") (Str2Reg "QQQ")) (RegexPlus (Str2Reg "R"))) (RegexConcat (RegexPlus (RegexPlus (Str2Reg "OO"))) (RegexConcat (RegexStar (RegexUnion (Str2Reg "MMM") (Str2Reg "NN"))) (RegexConcat (RegexPlus (RegexUnion (Str2Reg "KKK") (Str2Reg "L"))) (RegexConcat (RegexStar (RegexUnion (Str2Reg "I") (Str2Reg "JJ"))) (RegexConcat (RegexStar (RegexPlus (Str2Reg "H"))) (RegexConcat (RegexPlus (RegexPlus (Str2Reg "GGG"))) (RegexConcat (RegexPlus (RegexStar (Str2Reg "F"))) (RegexConcat (RegexPlus (RegexUnion (Str2Reg "D") (Str2Reg "E"))) (RegexConcat (RegexPlus (RegexUnion (Str2Reg "B") (Str2Reg "CCC"))) (RegexConcat (RegexUnion (RegexUnion (Str2Reg "y") (Str2Reg "z")) (RegexStar (Str2Reg "AAA"))) (RegexConcat (RegexPlus (RegexUnion (Str2Reg "w") (Str2Reg "xxx"))) (RegexConcat (RegexStar (RegexPlus (Str2Reg "v"))) (RegexConcat (RegexStar (RegexPlus (Str2Reg "uuu"))) (RegexConcat (RegexUnion (RegexStar (Str2Reg "ss")) (RegexPlus (Str2Reg "t"))) (RegexConcat (RegexStar (RegexUnion (Str2Reg "q") (Str2Reg "rrr"))) (RegexConcat (RegexUnion (RegexUnion (Str2Reg "nnn") (Str2Reg "ooo")) (RegexStar (Str2Reg "pp"))) (RegexConcat (RegexStar (RegexStar (Str2Reg "m"))) (RegexConcat (RegexPlus (RegexStar (Str2Reg "l"))) (RegexConcat (RegexPlus (RegexStar (Str2Reg "kk"))) (RegexConcat (RegexStar (RegexStar (Str2Reg "j"))) (RegexConcat (RegexPlus (RegexStar (Str2Reg "iii"))) (RegexConcat (RegexStar (RegexPlus (Str2Reg "h"))) (RegexConcat (RegexUnion (RegexStar (Str2Reg "ff")) (RegexStar (Str2Reg "gg"))) (RegexConcat (RegexStar (RegexUnion (Str2Reg "d") (Str2Reg "eee"))) (RegexConcat (RegexStar (RegexStar (Str2Reg "ccc"))) (RegexConcat (RegexPlus (RegexPlus (Str2Reg "b"))) (RegexConcat (RegexStar (RegexStar (Str2Reg "aa"))) (RegexConcat (RegexStar (RegexPlus (Str2Reg "99"))) (RegexConcat (RegexStar (RegexPlus (Str2Reg "8"))) (RegexConcat (RegexUnion (RegexPlus (Str2Reg "666")) (RegexStar (Str2Reg "77"))) (RegexConcat (RegexPlus (RegexUnion (Str2Reg "444") (Str2Reg "5"))) (RegexConcat (RegexStar (RegexUnion (Str2Reg "222") (Str2Reg "33"))) (RegexConcat (RegexStar (RegexPlus (Str2Reg "11"))) (RegexStar (RegexStar (Str2Reg "000")))))))))))))))))))))))))))))))))))))))))))))
(assert (not (RegexIn var0 (RegexConcat (RegexPlus (RegexUnion (Str2Reg "\"") (Str2Reg "###"))) (RegexConcat (RegexPlus (RegexUnion (Str2Reg "ZZ") (Str2Reg "!!!"))) (RegexConcat (RegexPlus (RegexPlus (Str2Reg "YYY"))) (RegexConcat (RegexStar (RegexPlus (Str2Reg "XXX"))) (RegexConcat (RegexPlus (RegexUnion (Str2Reg "V") (Str2Reg "W"))) (RegexConcat (RegexStar (RegexUnion (Str2Reg "TT") (Str2Reg "U"))) (RegexConcat (RegexPlus (RegexUnion (Str2Reg "R") (Str2Reg "SS"))) (RegexConcat (RegexPlus (RegexStar (Str2Reg "QQ"))) (RegexConcat (RegexPlus (RegexPlus (Str2Reg "PPP"))) (RegexConcat (RegexPlus (RegexStar (Str2Reg "O"))) (RegexConcat (RegexStar (RegexStar (Str2Reg "NNN"))) (RegexConcat (RegexPlus (RegexUnion (Str2Reg "L") (Str2Reg "MMM"))) (RegexConcat (RegexStar (RegexPlus (Str2Reg "K"))) (RegexConcat (RegexPlus (RegexUnion (Str2Reg "I") (Str2Reg "JJ"))) (RegexConcat (RegexStar (RegexPlus (Str2Reg "HH"))) (RegexConcat (RegexPlus (RegexPlus (Str2Reg "GG"))) (RegexConcat (RegexStar (RegexStar (Str2Reg "F"))) (RegexConcat (RegexUnion (RegexPlus (Str2Reg "DDD")) (RegexPlus (Str2Reg "EEE"))) (RegexConcat (RegexUnion (RegexStar (Str2Reg "B")) (RegexStar (Str2Reg "CCC"))) (RegexConcat (RegexPlus (RegexPlus (Str2Reg "A"))) (RegexConcat (RegexPlus (RegexStar (Str2Reg "zzz"))) (RegexConcat (RegexPlus (RegexStar (Str2Reg "yyy"))) (RegexConcat (RegexPlus (RegexPlus (Str2Reg "x"))) (RegexConcat (RegexUnion (RegexPlus (Str2Reg "v")) (RegexStar (Str2Reg "www"))) (RegexConcat (RegexPlus (RegexPlus (Str2Reg "uuu"))) (RegexConcat (RegexUnion (RegexUnion (Str2Reg "q") (Str2Reg "r")) (RegexUnion (Str2Reg "ss") (Str2Reg "ttt"))) (RegexConcat (RegexPlus (RegexPlus (Str2Reg "pp"))) (RegexConcat (RegexStar (RegexPlus (Str2Reg "o"))) (RegexConcat (RegexUnion (RegexPlus (Str2Reg "l")) (RegexUnion (Str2Reg "mm") (Str2Reg "n"))) (RegexConcat (RegexUnion (RegexPlus (Str2Reg "j")) (RegexStar (Str2Reg "k"))) (RegexConcat (RegexUnion (RegexUnion (Str2Reg "fff") (Str2Reg "ggg")) (RegexUnion (Str2Reg "hhh") (Str2Reg "ii"))) (RegexConcat (RegexPlus (RegexPlus (Str2Reg "e"))) (RegexConcat (RegexStar (RegexStar (Str2Reg "dd"))) (RegexConcat (RegexStar (RegexPlus (Str2Reg "ccc"))) (RegexConcat (RegexStar (RegexStar (Str2Reg "bb"))) (RegexConcat (RegexStar (RegexPlus (Str2Reg "a"))) (RegexConcat (RegexStar (RegexUnion (Str2Reg "88") (Str2Reg "99"))) (RegexConcat (RegexStar (RegexUnion (Str2Reg "66") (Str2Reg "77"))) (RegexConcat (RegexPlus (RegexStar (Str2Reg "55"))) (RegexConcat (RegexUnion (RegexPlus (Str2Reg "222")) (RegexUnion (Str2Reg "3") (Str2Reg "4"))) (RegexPlus (RegexUnion (Str2Reg "000") (Str2Reg "111"))))))))))))))))))))))))))))))))))))))))))))))
(check-sat)